(set-info :smt-lib-version 2.6)
(set-logic QF_S)
(set-info :source |
Generated by: Murphy Berzish, Mitja Kulczynski, Federico Mora, Florin Manea, Joel Day, Dirk Nowotka, Vijay Ganesh, Zhengyang Lu
Generated on: 2020-10-01
Description: Translated from a collection of real-world regex queries, AutomataArk, collected by Loris D’Antoni and Fang Wang: https://github.com/lorisdanto/automatark
Application: Evaluate solvers on real-world regex queries
Target solver: Z3str3RE, CVC4, OSTRICH, Z3seq, Z3str3, Z3-Trau
Publications: Berzish, M., Kulczynski, M., Mora, F., Manea, F., Day, J. D., Nowotka, D., & Ganesh, V. (2021, July). An SMT solver for regular expressions and linear arithmetic over string length. In CAV 2021.
|)
(set-info :license "https://creativecommons.org/licenses/by/4.0/")
(set-info :category "industrial")
(set-info :status unsat)

(declare-const X String)
(assert (str.in_re X (re.++ (str.to_re "/filename=") (re.* (re.comp (str.to_re "\u{a}"))) (str.to_re ".jpe/i\u{a}"))))
(assert (str.in_re X (re.++ (str.to_re "/DEXT87") (re.union (str.to_re "no") (str.to_re "up") (re.++ (re.+ (re.range "0" "9")) (str.to_re ".") (re.+ (re.range "0" "9")) (str.to_re ".") (re.+ (re.range "0" "9")) (str.to_re ".") (re.+ (re.range "0" "9")))) (str.to_re "/i\u{a}"))))
(assert (str.in_re X (re.++ (re.union (re.++ (re.union (str.to_re "v") (str.to_re "\u{5c}") (str.to_re "/")) (re.* (re.comp (re.union (re.range "0" "9") (re.range "A" "Z") (re.range "a" "z") (str.to_re "_")))) (re.union (str.to_re "i") (str.to_re "1")) (re.* (re.comp (re.union (re.range "0" "9") (re.range "A" "Z") (re.range "a" "z") (str.to_re "_")))) (re.union (str.to_re "a") (str.to_re "@")) (re.* (re.comp (re.union (re.range "0" "9") (re.range "A" "Z") (re.range "a" "z") (str.to_re "_")))) (str.to_re "g") (re.* (re.comp (re.union (re.range "0" "9") (re.range "A" "Z") (re.range "a" "z") (str.to_re "_")))) (str.to_re "r") (re.* (re.comp (re.union (re.range "0" "9") (re.range "A" "Z") (re.range "a" "z") (str.to_re "_")))) (re.union (str.to_re "a") (str.to_re "@"))) (re.++ (str.to_re "v") (re.* (re.comp (re.union (re.range "0" "9") (re.range "A" "Z") (re.range "a" "z") (str.to_re "_")))) (re.union (str.to_re "i") (str.to_re "1")) (re.* (re.comp (re.union (re.range "0" "9") (re.range "A" "Z") (re.range "a" "z") (str.to_re "_")))) (str.to_re "c") (re.* (re.comp (re.union (re.range "0" "9") (re.range "A" "Z") (re.range "a" "z") (str.to_re "_")))) (re.union (str.to_re "o") (str.to_re "0")) (re.* (re.comp (re.union (re.range "0" "9") (re.range "A" "Z") (re.range "a" "z") (str.to_re "_")))) (str.to_re "d") (re.* (re.comp (re.union (re.range "0" "9") (re.range "A" "Z") (re.range "a" "z") (str.to_re "_")))) (re.union (str.to_re "i") (str.to_re "1")) (re.* (re.comp (re.union (re.range "0" "9") (re.range "A" "Z") (re.range "a" "z") (str.to_re "_")))) (str.to_re "n"))) (str.to_re "\u{a}"))))
(assert (not (str.in_re X (re.++ (re.opt (re.++ (re.opt (str.to_re "(")) (re.range "0" "9") (re.range "0" "9") (re.range "0" "9") (re.opt (str.to_re ")")))) (re.opt (re.union (str.to_re " ") (str.to_re "-") (str.to_re "."))) (re.range "0" "9") (re.range "0" "9") (re.range "0" "9") (re.opt (re.union (str.to_re " ") (str.to_re "-") (str.to_re "."))) ((_ re.loop 4 4) (re.range "0" "9")) (re.opt (re.++ (re.opt (re.union (str.to_re " ") (str.to_re "-") (str.to_re "."))) (re.+ (re.union (str.to_re "e") (str.to_re "x") (str.to_re "t") (str.to_re "."))) (re.opt (str.to_re " ")) (re.+ (re.range "0" "9")))) (str.to_re "\u{a}")))))
(assert (not (str.in_re X (re.union (re.++ (re.opt (re.++ (re.opt (str.to_re "+")) ((_ re.loop 2 2) (re.range "0" "9")) (str.to_re "-"))) (re.opt (str.to_re "(")) ((_ re.loop 3 5) (re.range "0" "9")) (re.opt (str.to_re ")")) (str.to_re "-")) (re.++ ((_ re.loop 3 5) (re.range "0" "9")) ((_ re.loop 1 1) ((_ re.loop 5 8) (re.range "0" "9"))) (str.to_re "\u{a}"))))))
(check-sat)

(exit)
